(set-info :smt-lib-version 2.6)
(set-logic QF_S)
(set-info :source |
Generated by: Murphy Berzish, Mitja Kulczynski, Federico Mora, Florin Manea, Joel Day, Dirk Nowotka, Vijay Ganesh, Zhengyang Lu
Generated on: 2020-10-01
Description: Translated from a collection of real-world regex queries, AutomataArk, collected by Loris D’Antoni and Fang Wang: https://github.com/lorisdanto/automatark
Application: Evaluate solvers on real-world regex queries
Target solver: Z3str3RE, CVC4, OSTRICH, Z3seq, Z3str3, Z3-Trau
Publications: Berzish, M., Kulczynski, M., Mora, F., Manea, F., Day, J. D., Nowotka, D., & Ganesh, V. (2021, July). An SMT solver for regular expressions and linear arithmetic over string length. In CAV 2021.
|)
(set-info :license "https://creativecommons.org/licenses/by/4.0/")
(set-info :category "industrial")
(set-info :status sat)

(declare-const X String)
(assert (not (str.in_re X (re.++ (re.union (re.++ (re.opt (re.range "0" "1")) (re.range "0" "9")) (re.++ (str.to_re "2") (re.range "0" "3"))) (str.to_re "::\u{a}") (re.range "0" "5") (re.range "0" "9") (re.range "0" "5") (re.range "0" "9")))))
(assert (not (str.in_re X (re.++ (str.to_re "Ready") (re.* (re.union (str.to_re "\u{a}") (str.to_re "\u{d}"))) (str.to_re "User-Agent:") (re.+ (re.union (str.to_re " ") (str.to_re "\u{9}") (str.to_re "\u{a}") (str.to_re "\u{c}") (str.to_re "\u{d}"))) (str.to_re "Client") (re.range "0" "9") (str.to_re "From:Webtool.world2.cn\u{13}User-Agent:User-Agent:\u{a}")))))
(assert (str.in_re X (re.++ (str.to_re "/") (re.union (str.to_re "\u{17}\u{0}") (str.to_re "\u{0}\u{5c}")) (str.to_re "\u{0}e\u{0}l\u{0}s\u{0}e\u{0}x\u{0}t\u{0}.\u{0}d\u{0}l\u{0}l\u{0}\u{0}\u{0}/i\u{a}"))))
(assert (not (str.in_re X (re.++ (re.* re.allchar) (str.to_re "\u{a}.") (re.union (re.++ (re.union (str.to_re "J") (str.to_re "j")) (re.union (str.to_re "P") (str.to_re "p")) (re.union (str.to_re "G") (str.to_re "g"))) (re.++ (re.union (str.to_re "G") (str.to_re "g")) (re.union (str.to_re "I") (str.to_re "i")) (re.union (str.to_re "F") (str.to_re "f"))) (re.++ (re.union (str.to_re "J") (str.to_re "j")) (re.union (str.to_re "P") (str.to_re "p")) (re.union (str.to_re "E") (str.to_re "e")) (re.union (str.to_re "G") (str.to_re "g"))) (re.++ (re.union (str.to_re "P") (str.to_re "p")) (re.union (str.to_re "N") (str.to_re "n")) (re.union (str.to_re "G") (str.to_re "g"))))))))
(assert (not (str.in_re X (re.++ (str.to_re "&#x") (re.* (str.to_re "0")) (re.union (str.to_re "0") (str.to_re "1") (str.to_re "2") (str.to_re "3") (str.to_re "4") (str.to_re "5") (str.to_re "6") (str.to_re "7") (str.to_re "8") (str.to_re "B") (str.to_re "C") (str.to_re "E") (str.to_re "F") (str.to_re "10") (str.to_re "11") (str.to_re "12") (str.to_re "13") (str.to_re "14") (str.to_re "15") (str.to_re "16") (str.to_re "17") (str.to_re "18") (str.to_re "19") (str.to_re "1A") (str.to_re "1B") (str.to_re "1C") (str.to_re "1D") (str.to_re "1E") (str.to_re "1F")) (str.to_re ";\u{a}")))))
(check-sat)

(exit)
